Traveling Salesman Problem/TSP_generados/Aleatorio1620390896_7.tsp
NAME: Aleatorio1620390896_7.tsp
COMMENT: Randomly generated scenario
TYPE: TSP
DIMENSION: 7
EDGE_WEIGHT_TYPE: ATT
NODE_COORD_SECTION
1 34.95 24.92
2 0.32 38.56
3 8.31 41.65
4 13.87 11.19
5 0.88 16.42
6 42.42 6.06
7 4.65 36.23
