Traveling Salesman Problem/TSP_generados/Aleatorio1620390896_7.opt.tour
NAME: Aleatorio1620390896_7.opt.tour
COMMENT: Optimal solution for Aleatorio1620390896_7 (128.35786079168648)
TYPE: TOUR
DIMENSION: 7
TOUR_SECTION
1 3 7 2 5 4 6
-1
EOF
